(set-logic ALL)
(declare-fun i1 () Int)
(declare-fun it1 () Int)
(declare-fun it2 () Int)
(declare-fun i2 () Int)
(declare-fun it3 () Int)
(declare-fun i3 () Int)
(declare-fun it4 () Int)
(declare-fun it27 () Int)
(declare-fun it28 () Int)
(declare-fun it29 () Int)
(declare-fun it30 () Int)
(assert (= (+ i1 (- 1)) 0))
(assert (= (+ it1 (- 2)) 0))
(assert (= (+ (* i2 (- 1)) it2 (- 1)) 0))
(assert (= (+ (* i3 (- 1)) it3) 0))
(assert (= (+ it4 (- 1)) 0))
(assert (and (> 1 0)
     (>= (+ it3 (- 1)) 0)
     (>= (+ (* it1 (- 1)) 2) 0)
     (>= (+ it1 (- 2)) 0)))
(assert (= (+ (* it1 (- 1)) it27) 0))
(assert (= (+ (* it2 (- 1)) (* it3 (- 1)) it28) 0))
(assert (= it29 0))
(assert (= (+ (* (+ 0 it4) (exp 2 it3) (+ 0 (- 1))) (+ 0 it30)) (+ 0 0)))
(check-sat)
